c 1 __UCLIBC_HAS_RPC__
c 2 __UCLIBC_HAS_THREADS_NATIVE__
c 3 __UCLIBC_HAS_XLOCALE__
c 6 __UCLIBC_HAS_LOCALE__
c 7 __LINUXTHREADS_NEW__
c 5 __UCLIBC_HAS_FULL_RPC__
c 4 __UCLIBC_HAS_THREADS__
p cnf 7 1
2 -3 -5 -4 -1 6 -7 1
